7 55 150 36 3 117 86 11 79 
57 19 178 23 58 47 82 174 
46 54 151 125 89 37 110 
161 16 115 162 171 126 156 172 197 
41 147 199 93 135 64 133 195 180 28 
60 99 88 183 200 40 128 59 24 
145 121 62 159 10 83 45 
81 1 168 123 143 176 175 9 
106 85 94 12 114 39 108 
69 134 119 
196 38 84 32 90 29 96 65 191 43 
140 13 173 104 100 95 127 22 74 97 
149 165 113 31 185 170 78 148 
112 30 20 98 163 136 6 189 177 102 77 198 
92 48 146 124 103 154 
18 158 50 66 131 130 160 49 61 27 75 
120 51 26 21 139 187 53 192 111 
35 2 76 17 42 
155 67 63 44 68 5 116 25 182 91 
4 15 166 33 144 186 179 190 107 
87 8 122 169 181 101 
73 152 34 142 194 118 138 52 105 
157 72 56 
132 14 137 80 109 167 70 
188 184 153 71 193 129 141 164 
